NAME : D281-08k
COMMENT : Golden et al., 1997                     
TYPE : DCVRP               
DIMENSION :    281
EDGE_WEIGHT_TYPE : EUC_2D
CAPACITY :    900
DISTANCE :   1500
SERVICE_TIME :      0
VEHICLES :      8
NODE_COORD_TYPE : TWOD_COORDS
NODE_COORD_SECTION
    1   30.0000    0.0000
    2   29.2478    6.6756
    3   27.0291   13.0165
    4   23.4549   18.7047
    5   18.7047   23.4549
    6   13.0165   27.0291
    7    6.6756   29.2478
    8    0.0000   30.0000
    9   -6.6756   29.2478
   10  -13.0165   27.0291
   11  -18.7047   23.4549
   12  -23.4549   18.7047
   13  -27.0291   13.0165
   14  -29.2478    6.6756
   15  -30.0000    0.0000
   16  -29.2478   -6.6756
   17  -27.0291  -13.0165
   18  -23.4549  -18.7047
   19  -18.7047  -23.4549
   20  -13.0165  -27.0291
   21   -6.6756  -29.2478
   22    0.0000  -30.0000
   23    6.6756  -29.2478
   24   13.0165  -27.0291
   25   18.7047  -23.4549
   26   23.4549  -18.7047
   27   27.0291  -13.0165
   28   29.2478   -6.6756
   29   60.0000    0.0000
   30   58.4957   13.3513
   31   54.0581   26.0330
   32   46.9099   37.4094
   33   37.4094   46.9099
   34   26.0330   54.0581
   35   13.3513   58.4957
   36    0.0000   60.0000
   37  -13.3513   58.4957
   38  -26.0330   54.0581
   39  -37.4094   46.9099
   40  -46.9099   37.4094
   41  -54.0581   26.0330
   42  -58.4957   13.3513
   43  -60.0000    0.0000
   44  -58.4957  -13.3513
   45  -54.0581  -26.0330
   46  -46.9099  -37.4094
   47  -37.4094  -46.9099
   48  -26.0330  -54.0581
   49  -13.3512  -58.4957
   50    0.0000  -60.0000
   51   13.3513  -58.4957
   52   26.0330  -54.0581
   53   37.4094  -46.9099
   54   46.9099  -37.4094
   55   54.0581  -26.0330
   56   58.4957  -13.3512
   57   90.0000    0.0000
   58   87.7435   20.0269
   59   81.0872   39.0495
   60   70.3648   56.1141
   61   56.1141   70.3648
   62   39.0495   81.0872
   63   20.0269   87.7435
   64    0.0000   90.0000
   65  -20.0269   87.7435
   66  -39.0495   81.0872
   67  -56.1141   70.3648
   68  -70.3648   56.1141
   69  -81.0872   39.0495
   70  -87.7435   20.0269
   71  -90.0000    0.0000
   72  -87.7435  -20.0269
   73  -81.0872  -39.0495
   74  -70.3648  -56.1141
   75  -56.1141  -70.3648
   76  -39.0495  -81.0872
   77  -20.0269  -87.7435
   78    0.0000  -90.0000
   79   20.0269  -87.7435
   80   39.0495  -81.0872
   81   56.1141  -70.3648
   82   70.3648  -56.1141
   83   81.0872  -39.0495
   84   87.7435  -20.0269
   85  120.0000    0.0000
   86  116.9913   26.7025
   87  108.1163   52.0661
   88   93.8198   74.8188
   89   74.8188   93.8198
   90   52.0660  108.1163
   91   26.7025  116.9913
   92    0.0000  120.0000
   93  -26.7025  116.9913
   94  -52.0661  108.1163
   95  -74.8188   93.8198
   96  -93.8198   74.8188
   97 -108.1163   52.0660
   98 -116.9913   26.7025
   99 -120.0000    0.0000
  100 -116.9913  -26.7025
  101 -108.1163  -52.0661
  102  -93.8198  -74.8188
  103  -74.8188  -93.8198
  104  -52.0660 -108.1163
  105  -26.7025 -116.9914
  106    0.0000 -120.0000
  107   26.7025 -116.9913
  108   52.0661 -108.1163
  109   74.8188  -93.8198
  110   93.8198  -74.8188
  111  108.1163  -52.0660
  112  116.9914  -26.7025
  113  150.0000    0.0000
  114  146.2392   33.3781
  115  135.1453   65.0826
  116  117.2747   93.5235
  117   93.5235  117.2747
  118   65.0826  135.1453
  119   33.3781  146.2392
  120    0.0000  150.0000
  121  -33.3781  146.2392
  122  -65.0826  135.1453
  123  -93.5235  117.2747
  124 -117.2747   93.5235
  125 -135.1453   65.0826
  126 -146.2392   33.3781
  127 -150.0000    0.0000
  128 -146.2392  -33.3782
  129 -135.1453  -65.0826
  130 -117.2747  -93.5235
  131  -93.5235 -117.2747
  132  -65.0825 -135.1453
  133  -33.3781 -146.2392
  134    0.0000 -150.0000
  135   33.3782 -146.2392
  136   65.0826 -135.1453
  137   93.5235 -117.2747
  138  117.2747  -93.5235
  139  135.1453  -65.0825
  140  146.2392  -33.3781
  141  180.0000    0.0000
  142  175.4870   40.0538
  143  162.1744   78.0991
  144  140.7297  112.2282
  145  112.2282  140.7297
  146   78.0991  162.1744
  147   40.0538  175.4870
  148    0.0000  180.0000
  149  -40.0538  175.4870
  150  -78.0991  162.1744
  151 -112.2282  140.7297
  152 -140.7297  112.2282
  153 -162.1744   78.0991
  154 -175.4870   40.0538
  155 -180.0000    0.0000
  156 -175.4870  -40.0538
  157 -162.1744  -78.0991
  158 -140.7297 -112.2282
  159 -112.2281 -140.7297
  160  -78.0991 -162.1744
  161  -40.0537 -175.4870
  162    0.0000 -180.0000
  163   40.0538 -175.4870
  164   78.0991 -162.1744
  165  112.2282 -140.7296
  166  140.7297 -112.2281
  167  162.1744  -78.0990
  168  175.4870  -40.0537
  169  210.0000    0.0000
  170  204.7349   46.7294
  171  189.2035   91.1156
  172  164.1846  130.9329
  173  130.9329  164.1846
  174   91.1156  189.2035
  175   46.7294  204.7349
  176    0.0000  210.0000
  177  -46.7294  204.7349
  178  -91.1156  189.2035
  179 -130.9329  164.1846
  180 -164.1846  130.9328
  181 -189.2035   91.1156
  182 -204.7349   46.7294
  183 -210.0000    0.0000
  184 -204.7349  -46.7294
  185 -189.2035  -91.1156
  186 -164.1846 -130.9329
  187 -130.9328 -164.1846
  188  -91.1156 -189.2035
  189  -46.7294 -204.7349
  190    0.0000 -210.0000
  191   46.7294 -204.7348
  192   91.1156 -189.2034
  193  130.9329 -164.1846
  194  164.1846 -130.9328
  195  189.2035  -91.1156
  196  204.7349  -46.7294
  197  240.0000    0.0000
  198  233.9827   53.4050
  199  216.2325  104.1321
  200  187.6396  149.6376
  201  149.6375  187.6396
  202  104.1321  216.2325
  203   53.4050  233.9827
  204    0.0000  240.0000
  205  -53.4050  233.9827
  206 -104.1321  216.2325
  207 -149.6376  187.6395
  208 -187.6396  149.6375
  209 -216.2325  104.1321
  210 -233.9827   53.4050
  211 -240.0000    0.0000
  212 -233.9827  -53.4050
  213 -216.2325 -104.1321
  214 -187.6395 -149.6376
  215 -149.6375 -187.6396
  216 -104.1321 -216.2325
  217  -53.4050 -233.9827
  218    0.0000 -240.0000
  219   53.4051 -233.9827
  220  104.1321 -216.2325
  221  149.6376 -187.6395
  222  187.6396 -149.6375
  223  216.2325 -104.1321
  224  233.9827  -53.4050
  225  270.0000    0.0000
  226  263.2305   60.0807
  227  243.2616  117.1486
  228  211.0945  168.3423
  229  168.3422  211.0945
  230  117.1486  243.2616
  231   60.0806  263.2305
  232    0.0000  270.0000
  233  -60.0807  263.2305
  234 -117.1486  243.2616
  235 -168.3423  211.0945
  236 -211.0945  168.3422
  237 -243.2616  117.1486
  238 -263.2305   60.0806
  239 -270.0000    0.0000
  240 -263.2305  -60.0807
  241 -243.2616 -117.1486
  242 -211.0945 -168.3423
  243 -168.3422 -211.0945
  244 -117.1486 -243.2616
  245  -60.0806 -263.2305
  246    0.0000 -270.0000
  247   60.0807 -263.2305
  248  117.1486 -243.2616
  249  168.3423 -211.0945
  250  211.0945 -168.3422
  251  243.2616 -117.1486
  252  263.2306  -60.0806
  253  300.0000    0.0000
  254  292.4784   66.7563
  255  270.2906  130.1651
  256  234.5494  187.0470
  257  187.0469  234.5495
  258  130.1651  270.2906
  259   66.7563  292.4784
  260    0.0000  300.0000
  261  -66.7563  292.4784
  262 -130.1651  270.2906
  263 -187.0470  234.5494
  264 -234.5495  187.0469
  265 -270.2907  130.1651
  266 -292.4784   66.7563
  267 -300.0000    0.0000
  268 -292.4784  -66.7563
  269 -270.2906 -130.1651
  270 -234.5494 -187.0470
  271 -187.0469 -234.5495
  272 -130.1651 -270.2907
  273  -66.7562 -292.4784
  274    0.0000 -300.0000
  275   66.7563 -292.4784
  276  130.1652 -270.2906
  277  187.0470 -234.5494
  278  234.5495 -187.0469
  279  270.2907 -130.1651
  280  292.4784  -66.7562
  281    0.0000    0.0000
DEMAND_SECTION
    1     10
    2     30
    3     30
    4     10
    5     10
    6     30
    7     30
    8     10
    9     10
   10     30
   11     30
   12     10
   13     10
   14     30
   15     30
   16     10
   17     10
   18     30
   19     30
   20     10
   21     10
   22     30
   23     30
   24     10
   25     10
   26     30
   27     30
   28     10
   29     10
   30     30
   31     30
   32     10
   33     10
   34     30
   35     30
   36     10
   37     10
   38     30
   39     30
   40     10
   41     10
   42     30
   43     30
   44     10
   45     10
   46     30
   47     30
   48     10
   49     10
   50     30
   51     30
   52     10
   53     10
   54     30
   55     30
   56     10
   57     10
   58     30
   59     30
   60     10
   61     10
   62     30
   63     30
   64     10
   65     10
   66     30
   67     30
   68     10
   69     10
   70     30
   71     30
   72     10
   73     10
   74     30
   75     30
   76     10
   77     10
   78     30
   79     30
   80     10
   81     10
   82     30
   83     30
   84     10
   85     10
   86     30
   87     30
   88     10
   89     10
   90     30
   91     30
   92     10
   93     10
   94     30
   95     30
   96     10
   97     10
   98     30
   99     30
  100     10
  101     10
  102     30
  103     30
  104     10
  105     10
  106     30
  107     30
  108     10
  109     10
  110     30
  111     30
  112     10
  113     10
  114     30
  115     30
  116     10
  117     10
  118     30
  119     30
  120     10
  121     10
  122     30
  123     30
  124     10
  125     10
  126     30
  127     30
  128     10
  129     10
  130     30
  131     30
  132     10
  133     10
  134     30
  135     30
  136     10
  137     10
  138     30
  139     30
  140     10
  141     10
  142     30
  143     30
  144     10
  145     10
  146     30
  147     30
  148     10
  149     10
  150     30
  151     30
  152     10
  153     10
  154     30
  155     30
  156     10
  157     10
  158     30
  159     30
  160     10
  161     10
  162     30
  163     30
  164     10
  165     10
  166     30
  167     30
  168     10
  169     10
  170     30
  171     30
  172     10
  173     10
  174     30
  175     30
  176     10
  177     10
  178     30
  179     30
  180     10
  181     10
  182     30
  183     30
  184     10
  185     10
  186     30
  187     30
  188     10
  189     10
  190     30
  191     30
  192     10
  193     10
  194     30
  195     30
  196     10
  197     10
  198     30
  199     30
  200     10
  201     10
  202     30
  203     30
  204     10
  205     10
  206     30
  207     30
  208     10
  209     10
  210     30
  211     30
  212     10
  213     10
  214     30
  215     30
  216     10
  217     10
  218     30
  219     30
  220     10
  221     10
  222     30
  223     30
  224     10
  225     10
  226     30
  227     30
  228     10
  229     10
  230     30
  231     30
  232     10
  233     10
  234     30
  235     30
  236     10
  237     10
  238     30
  239     30
  240     10
  241     10
  242     30
  243     30
  244     10
  245     10
  246     30
  247     30
  248     10
  249     10
  250     30
  251     30
  252     10
  253     10
  254     30
  255     30
  256     10
  257     10
  258     30
  259     30
  260     10
  261     10
  262     30
  263     30
  264     10
  265     10
  266     30
  267     30
  268     10
  269     10
  270     30
  271     30
  272     10
  273     10
  274     30
  275     30
  276     10
  277     10
  278     30
  279     30
  280     10
  281      0
DEPOT_SECTION
  281
EOF
